Route #1: 22 52 92 102 26 62 33
Route #2: 78 7 75 84 104 24 90
Route #3: 1 12 9 101 103 53 76
Route #4: 5 44 15 60 51 100 45
Route #5: 96 87 28 93 97 46 66
Route #6: 71 49 99 11 34 72 29
Route #7: 82 63 31 40 13 54 21 74
Route #8: 57 105 17 2 83 77 67 85
Route #9: 94 64 69 48 8 36 88 86 18
Route #10: 41 10 16 20 35 59 47 95
Route #11: 68 65 4 30 38 89 32 73
Route #12: 39 50 81 6 70 80 61
Route #13: 42 98 23 3 55 91 58 14
Route #14: 25 56 19 27 37 79 43
Cost 27624
